
;this file is automatically generated: Thu Jan 02 16:54:47 GMT 2020

;declarations generated

(declare-fun oclExcludes ( Int Int) Bool)
(declare-fun Cardinality ( Int) Int)
(declare-fun obj_18295c04_2dea_4286_a70d_f21973c9df8b ( Int) Int)
(declare-fun type_e77acbf7_80e8_44ea_b672_cb48a854ee79_Class10 ( Int) Bool)
(declare-fun oclSelect ( Int Bool) Int)
(declare-fun Enum0 ( Int) Int)
(declare-fun Enum1 ( Int) Int)
(declare-fun Enum2 ( Int) Int)
(declare-fun class10_Class10BoolAttr1 ( Int) Bool)
(declare-fun container_ ( Int) Int)
(declare-fun oclIncludes ( Int Int) Bool)
(declare-fun ObjAt ( Int Int) Int)

;formula(s) generated
(assert (! (or (forall ((v Int)) (=> ( type_e77acbf7_80e8_44ea_b672_cb48a854ee79_Class10 v )  (= ( Enum2 ( obj_18295c04_2dea_4286_a70d_f21973c9df8b v )  )  6))) (forall ((v Int)) (=> ( type_e77acbf7_80e8_44ea_b672_cb48a854ee79_Class10 v )  (not ( class10_Class10BoolAttr1 ( obj_18295c04_2dea_4286_a70d_f21973c9df8b v )  )  )))):named l0))
(assert (exists ((o Int)) ( type_e77acbf7_80e8_44ea_b672_cb48a854ee79_Class10 ( obj_18295c04_2dea_4286_a70d_f21973c9df8b o )  ) ))

 ;end of formula 